SPARKNaCl/why3-z3/sparknacl-aes.adb_179_32_range_check_1.smt2
;; produced by z3_gnatprove.drv ;;
(set-info :smt-lib-version 2.5)
(set-info :source |VC generated by SPARK 2014|)
(set-info :category industrial)
(set-info :status unknown)
;;; generated by SMT-LIB2 driver
;;; SMT-LIB2 driver: bit-vectors, common part
;;; SMT-LIB2: integer arithmetic
(declare-datatypes ()
  ((t__ref (t__refqtmk (t__content (_ BitVec 32))))))

(declare-const u (_ BitVec 32))

(declare-const v (_ BitVec 32))

(declare-const r (_ BitVec 32))

(declare-const p (_ BitVec 32))

(declare-const q (_ BitVec 32))

(declare-const return_value (_ BitVec 32))

;; "return_value'unused"
(define-fun return_valueqtunused () t__ref
  (t__refqtmk return_value))

;; "q'unused"
(define-fun qqtunused () t__ref
  (t__refqtmk q))

;; "p'unused"
(define-fun pqtunused () t__ref
  (t__refqtmk p))

;; "Assume"
(assert true)

;; "Assume"
(assert true)

;; "o"
(define-fun o () (_ BitVec 32)
  ((_ int2bv 32) 2))

;; "of_int'result'unused"
(define-fun of_intqtresultqtunused () (_ BitVec 32)
  o)

;; "o"
(define-fun o1 () (_ BitVec 32)
  (bvlshr u o))

;; "lsr_bv'result'unused"
(define-fun lsr_bvqtresultqtunused () (_ BitVec 32)
  o1)

;; "o"
(define-fun o2 () (_ BitVec 32)
  (bvxor u o1))

;; "bw_xor'result'unused"
(define-fun bw_xorqtresultqtunused () (_ BitVec 32)
  o2)

;; "ada___sparknacl__aes__gf2p2p2p2_inverse__gf2p2p2_multiply__r__assume'unused"
(define-fun ada___sparknacl__aes__gf2p2p2p2_inverse__gf2p2p2_multiply__r__assumeqtunused 
  () (_ BitVec 32)
  o2)

;; "Ensures"
(assert true)

;; "range_check_'result'unused"
(define-fun range_check_qtresultqtunused () (_ BitVec 32)
  o2)

;; "Assume"
(assert (= o2 r))

;; "Assume"
(assert true)

;; "o"
(define-fun o3 () (_ BitVec 32)
  ((_ int2bv 32) 2))

;; "of_int'result'unused"
(define-fun of_intqtresultqtunused1 () (_ BitVec 32)
  o3)

;; "o"
(define-fun o4 () (_ BitVec 32)
  (bvlshr v o3))

;; "lsr_bv'result'unused"
(define-fun lsr_bvqtresultqtunused1 () (_ BitVec 32)
  o4)

;; "o"
(define-fun o5 () (_ BitVec 32)
  (bvxor v o4))

;; "bw_xor'result'unused"
(define-fun bw_xorqtresultqtunused1 () (_ BitVec 32)
  o5)

;; Goal "def'vc"
;; File "sparknacl-aes.adb", line 136, characters 0-0
(assert
  (not true))

(check-sat)
